c This Formular is generated by mcnf
c
c    horn? no 
c    forced? no 
c    mixed sat? no 
c    clause length = 3 
c
p cnf 20  91 
 14 -20 -11 0
-9 4 -14 0
-6 -7 -20 0
-13 12 -9 0
-9 -14 5 0
13 -9 -2 0
-1 -20 19 0
-14 -17 13 0
-9 6 1 0
-10 11 -18 0
-16 20 -2 0
-12 -4 13 0
17 11 -1 0
-19 12 1 0
3 -17 -12 0
-14 6 -17 0
-8 15 -3 0
4 -1 -10 0
-19 10 -4 0
-1 -11 -9 0
10 -5 4 0
%
0

24 11 82 40 32 30 17 42 9 34 92 33 67 86 79 51 20 69 11 66
